
Gurobi 12.0.2 (win64) logging started Mon Nov 10 21:26:03 2025

Set parameter LogFile to value "C:\Ioana\_uni\honours\slp\algorithm\Main_files\results\paracetamol_numaistiu\Task_005_Sample003_irr_gurobi.log"
Gurobi Optimizer version 12.0.2 build v12.0.2rc0 (win64 - Windows 11.0 (26100.2))

CPU model: Intel(R) Core(TM) Ultra 5 125H, instruction set [SSE2|AVX|AVX2]
Thread count: 14 physical cores, 18 logical processors, using up to 18 threads

Non-default parameters:
TimeLimit  2200

Optimize a model with 47236 rows, 34507 columns and 146717 nonzeros
Model fingerprint: 0xea7e2e61
Variable types: 17258 continuous, 17249 integer (17249 binary)
Coefficient statistics:
  Matrix range     [1e-04, 8e+04]
  Objective range  [1e-04, 9e-01]
  Bounds range     [1e+00, 1e+03]
  RHS range        [1e+00, 1e+00]
Presolve removed 30835 rows and 21554 columns
Presolve time: 0.33s
Presolved: 16401 rows, 12953 columns, 54585 nonzeros
Variable types: 6411 continuous, 6542 integer (6542 binary)

Root relaxation: objective 8.772224e-01, 4737 iterations, 0.42 seconds (0.96 work units)

    Nodes    |    Current Node    |     Objective Bounds      |     Work
 Expl Unexpl |  Obj  Depth IntInf | Incumbent    BestBd   Gap | It/Node Time

     0     0    0.87722    0    5          -    0.87722      -     -    0s
H    0     0                       0.9047477    0.87722  3.04%     -    0s
     0     0    0.88926    0    7    0.90475    0.88926  1.71%     -    1s
     0     0    0.88926    0    4    0.90475    0.88926  1.71%     -    1s
     0     0     cutoff    0         0.90475    0.90475  0.00%     -    1s

Cutting planes:
  Cover: 1
  MIR: 2
  Flow cover: 5
  Flow path: 1
  Network: 1
  Relax-and-lift: 2

Explored 1 nodes (6032 simplex iterations) in 1.15 seconds (1.69 work units)
Thread count was 18 (of 18 available processors)

Solution count 1: 0.904748 

Optimal solution found (tolerance 1.00e-04)
Best objective 9.047477420282e-01, best bound 9.047477420282e-01, gap 0.0000%
